50 97874 167831
10485	485
25094	15094
66326	56326
34506	24506
89248	79248
104416	94416
55421	45421
50992	40992
90322	80322
76649	66649
25795	15795
59237	49237
68043	58043
106457	96457
52845	42845
77815	67815
34955	24955
29446	19446
59252	49252
73422	63422
71009	61009
98791	88791
35901	25901
59359	49359
91122	81122
55667	45667
91094	81094
41598	31598
48738	38738
92007	82007
98574	88574
30544	20544
75715	65715
95334	85334
88882	78882
92766	82766
41367	31367
103994	93994
69984	59984
69893	59893
83299	73299
72633	62633
59433	49433
97131	87131
25682	15682
15428	5428
100072	90072
86700	76700
107874	97874
40617	30617
